13732
101001001001001001001000100001
20 17 8 14 20 5 17 24 2 17 29 14 8 20 17 14 14 17 5 11 2 0 11 17 24 8 17 24 11 5 29 11 14 5 20 20 24 24 14 14 0 8 24 0 24 14 17 20 5 8 5 8 14 5 8 20 17 0 0 14 0 24 20 11 11 11 24 0 0 11 8 20 11 17 24 8 24 20 2 24 20 0 20 17 17 17 17 17 20 24 2 24 0 11 17 24 14 14 5 8 2 2 0 11 17 5 0 11 8 14 14 8 2 11 11 5 24 24 5 24 5 8 11 20 8 17 5 5 11 0 17 5 24 11 8 14 0 24 8 0 0 8 20 14 8 5 11 5 2 24 